workspace_BA/ba-solver/src/main/resources/input_graphs/full_reference_set_d2/bara_alb_n_60_m_2_5.gr
p td 60 116
0 2
0 3
0 4
0 5
0 6
0 11
0 12
0 13
0 14
0 37
0 38
0 39
1 2
1 3
1 7
1 8
1 13
1 17
1 23
1 27
1 30
1 33
1 35
1 41
1 45
1 54
2 5
2 25
2 26
3 4
3 6
3 9
3 10
3 18
3 22
3 24
3 28
3 36
3 45
3 52
3 54
3 57
4 8
4 20
4 23
4 27
4 41
4 43
4 52
5 7
5 9
5 11
5 25
5 31
5 42
5 44
5 47
5 49
5 56
8 10
8 12
8 15
8 18
8 29
8 32
8 40
9 21
10 19
10 21
10 55
11 14
11 35
11 46
12 17
12 19
12 29
13 15
13 16
13 20
13 57
14 22
14 26
14 44
14 51
15 16
15 24
15 31
15 34
15 46
21 28
21 47
22 32
22 48
22 55
23 43
23 50
24 37
24 49
25 39
26 30
26 58
28 33
28 36
29 34
30 56
30 59
31 38
32 42
35 48
37 40
42 50
43 53
46 51
46 58
50 59
51 53
