matlab_plots/results/reference_set/bara_alb_n_60_m_2_5.res
file: bara_alb_n_60_m_2_5.gr
total_nodes: 60
c_par: 2
dens: 2.0
lowest_k: 22
solved_k: 27
redu_time: 0.015
redu_nodes: 60
redu_edges: 116
heur_time: 0.016
heur_nodes: 59
heur_edges: 116
heur_k_used: 0
kernel_times: 0.000;0.000;0.016;0.000;0.000;0.000;
kernel_nodes: 60;60;60;60;60;60;
kernel_edges: 116;116;116;116;116;116;
hs_st_times: 0.000;0.000;0.000;0.032;0.132;0.015;
pipe_2_sum: 0.226
pipe_2_res: true
pipe_2_timeout: false
